6 24 4 10
3 1 6 14 8 14 18 20 9 17 6 12 2 13 18 11 19 16 12 4 18 20 10 13 
9.59 12.64 6.28 3.23 8.68 6.43 0.54 1.62 6.04 7.07 8.36 1.76 5.11 7.58 11.45 1.27 15.92 5.3 3.07 9.53 9.49 12.21 15.12 2.25 
13.83 14.8 9.92 4.32 14.27 5.02 5.39 1.61 2.83 3.14 11.78 11.64 9.89 7.2 14.01 9.67 2.16 15.93 1.77 6.84 11.49 1.62 3.87 3.34 
10.78 9.21 10 10.26 9.98 13.18 5.03 13.23 3.44 4.1 11.46 0.38 13.71 13.19 5.91 2.12 11.15 0.45 8.56 6.18 13.01 15.05 6.73 6.27 
3.73 1.07 5.82 14.88 0.31 15.28 13.16 8.52 12.79 7.19 10.51 12.51 12.33 15.51 14.29 14.04 1.86 8.95 13.51 1.08 13.05 14.42 11.31 15.29 
8 8 8 8 8 8 8 8 8 8 8 8 8 8 8 8 8 8 8 8 8 8 8 8 
8.27 1.27 0.67 13.07 8.17 13.22 12.8 3.99 14.58 2.71 14.23 1.56 2.66 1.93 10.84 2.28 7.57 2.95 0.64 15.57 14.07 2.6 10.87 1.99 
1 1 1 1 1 1 1 1 1 1 1 1 1 1 1 1 1 1 1 1 1 1 1 1 
1 1 1 1 1 1 1 1 1 1 1 1 1 1 1 1 1 1 1 1 1 1 1 1 
1 1 1 1 1 1 1 1 1 1 1 1 1 1 1 1 1 1 1 1 1 1 1 1 
1 1 1 1 1 1 1 1 1 1 1 1 1 1 1 1 1 1 1 1 1 1 1 1 
1 1 1 1 1 1 1 1 1 1 1 1 1 1 1 1 1 1 1 1 1 1 1 1 
1 1 1 1 1 1 1 1 1 1 1 1 1 1 1 1 1 1 1 1 1 1 1 1 
0.01 0.01 0.01 0.01 0.01 0.01 0.01 0.01 0.01 0.01 0.01 0.01 0.01 0.01 0.01 0.01 0.01 0.01 0.01 0.01 0.01 0.01 0.01 0.01 
0.02 0.02 0.02 0.02 0.02 0.02 0.02 0.02 0.02 0.02 0.02 0.02 0.02 0.02 0.02 0.02 0.02 0.02 0.02 0.02 0.02 0.02 0.02 0.02 
0.03 0.03 0.03 0.03 0.03 0.03 0.03 0.03 0.03 0.03 0.03 0.03 0.03 0.03 0.03 0.03 0.03 0.03 0.03 0.03 0.03 0.03 0.03 0.03 
0.04 0.04 0.04 0.04 0.04 0.04 0.04 0.04 0.04 0.04 0.04 0.04 0.04 0.04 0.04 0.04 0.04 0.04 0.04 0.04 0.04 0.04 0.04 0.04 
0.05 0.05 0.05 0.05 0.05 0.05 0.05 0.05 0.05 0.05 0.05 0.05 0.05 0.05 0.05 0.05 0.05 0.05 0.05 0.05 0.05 0.05 0.05 0.05 
1 1 1 1 1 1 1 1 1 1 1 1 1 1 1 1 1 1 1 1 1 1 1 1 
